40
2	4	7	8	9	10	12	13	17	18	19	21	22	24	28	29	30	31	32	33	34	35	36	37	39	40	0
1	7	10	11	13	15	16	17	19	22	23	24	28	30	31	33	36	37	38	39	40	0
5	8	11	18	24	27	30	35	36	37	40	0
1	10	11	13	14	16	17	19	20	21	22	23	24	27	30	31	32	33	36	37	0
3	8	10	11	12	13	14	15	16	18	19	20	21	23	24	26	27	31	33	34	35	37	40	0
9	10	12	13	14	17	18	21	22	23	25	26	32	37	38	39	40	0
1	2	12	13	14	15	17	18	19	21	22	23	24	26	28	32	36	37	38	39	40	0
1	3	5	9	11	13	15	16	18	19	20	21	22	23	24	25	26	27	28	29	33	34	35	38	39	0
1	6	8	10	12	15	16	17	18	21	23	24	27	29	36	38	39	40	0
1	2	4	5	6	9	12	15	16	19	20	21	24	26	29	30	31	32	36	39	0
2	3	4	5	8	13	18	21	22	24	25	27	28	30	32	37	40	0
1	5	6	7	9	10	13	14	15	17	18	19	20	22	25	27	30	31	33	36	37	38	39	0
1	2	4	5	6	7	8	11	12	14	16	17	18	23	25	27	30	36	37	39	0
4	5	6	7	12	13	15	17	20	22	23	25	26	27	28	30	31	33	34	35	36	37	40	0
2	5	7	8	9	10	12	14	16	17	18	20	23	25	30	31	33	38	0
2	4	5	8	9	10	13	15	17	19	20	22	24	25	26	29	30	35	37	38	39	40	0
1	2	4	6	7	9	12	13	14	15	16	18	21	29	30	32	33	34	39	0
1	3	5	6	7	8	9	11	12	13	15	17	19	21	23	24	30	31	34	38	40	0
1	2	4	5	7	8	10	12	16	18	24	27	28	32	34	35	37	38	39	0
4	5	8	10	12	14	15	16	24	27	30	32	33	35	38	40	0
1	4	5	6	7	8	9	10	11	17	18	24	25	26	27	30	31	32	34	35	38	39	40	0
1	2	4	6	7	8	11	12	14	16	23	26	28	29	33	34	37	38	40	0
2	4	5	6	7	8	9	13	14	15	18	22	30	32	34	36	40	0
1	2	3	4	5	7	8	9	10	11	16	18	19	20	21	26	30	31	36	38	40	0
6	8	11	12	13	14	15	16	21	29	32	33	34	36	0
5	6	7	8	10	14	16	21	22	24	27	28	29	30	31	32	34	35	38	39	40	0
3	4	5	8	9	11	12	13	14	19	20	21	26	28	30	33	34	35	39	40	0
1	2	7	8	11	14	19	22	26	27	29	31	32	33	38	39	0
1	8	9	10	16	17	22	25	26	28	30	33	37	38	39	0
1	2	3	4	10	11	12	13	14	15	16	17	18	20	21	23	24	26	27	29	31	33	35	0
1	2	4	5	10	12	14	15	18	21	24	26	28	30	32	33	35	0
1	4	6	7	10	11	17	19	20	21	23	25	26	28	31	33	35	36	37	38	40	0
1	2	4	5	8	12	14	15	17	20	22	25	27	28	29	30	31	32	35	40	0
1	5	8	14	17	18	19	21	22	23	25	26	27	35	36	37	40	0
1	3	5	8	14	16	19	20	21	26	27	30	31	32	33	34	36	37	40	0
1	2	3	4	7	9	10	12	13	14	23	24	25	32	34	35	38	0
1	2	3	4	5	6	7	11	12	13	14	16	19	22	29	32	34	35	38	39	0
2	6	7	8	9	12	15	16	18	19	20	21	22	24	26	28	29	32	36	37	0
1	2	6	7	8	9	10	12	13	16	17	19	21	26	27	28	29	37	0
1	2	3	5	6	7	9	11	14	16	18	20	21	22	23	24	26	27	32	33	34	35	0


comments:
random graph
nodes 40
edges 390
rng seed 935 
